
Gurobi 7.5.2 (linux64) logging started Sat Jul  7 16:25:54 2018

Changed value of parameter LogFile to result/ilp/simNo_3-n_100-m_40-s_4-minVAF_0.05-cov_10000-k_1-fn_0.15-fp_0.0001-na_0.15.ILP.gurobiSolverLog
   Prev: gurobi.log  Default: 
Changed value of parameter TimeLimit to 86400.0
   Prev: 1e+100  Min: 0.0  Max: 1e+100  Default: 1e+100
Optimize a model with 639293 rows, 10765 columns and 1940420 nonzeros
Variable types: 0 continuous, 10765 integer (10765 binary)
Coefficient statistics:
  Matrix range     [1e-04, 4e+00]
  Objective range  [1e+00, 1e+01]
  Bounds range     [1e+00, 1e+00]
  RHS range        [2e-01, 2e+00]
Found heuristic solution: objective -12301.85944
Presolve removed 130698 rows and 1023 columns (presolve time = 5s) ...
Presolve removed 132757 rows and 1023 columns (presolve time = 10s) ...
Presolve removed 133335 rows and 1023 columns (presolve time = 16s) ...
Presolve removed 191135 rows and 1601 columns (presolve time = 22s) ...
Presolve removed 191135 rows and 1601 columns
Presolve time: 23.58s
Presolved: 448158 rows, 9164 columns, 1348333 nonzeros
Variable types: 0 continuous, 9164 integer (9164 binary)
Presolved: 9164 rows, 457322 columns, 1357497 nonzeros

Presolve removed 9164 rows and 457322 columns

Root simplex log...

Iteration    Objective       Primal Inf.    Dual Inf.      Time
       0    1.2311239e+01   0.000000e+00   6.324000e+04     29s
    9117   -1.6548097e+02   0.000000e+00   1.287157e+05     30s
   25974   -2.9161461e+02   0.000000e+00   3.704975e+04     35s
   30899   -3.0840380e+02   0.000000e+00   0.000000e+00     39s
   30899   -3.0840380e+02   0.000000e+00   0.000000e+00     40s

Root relaxation: objective -3.084038e+02, 30899 iterations, 15.01 seconds
Total elapsed time = 70.21s
Total elapsed time = 110.30s

    Nodes    |    Current Node    |     Objective Bounds      |     Work
 Expl Unexpl |  Obj  Depth IntInf | Incumbent    BestBd   Gap | It/Node Time

     0     0 -308.40380    0  832 -12301.859 -308.40380  97.5%     -  130s
H    0     0                    -391.6412727 -308.40380  21.3%     -  135s
H    0     0                    -370.4453778 -308.40380  16.7%     -  138s
     0     0 -312.81961    0  832 -370.44538 -312.81961  15.6%     -  196s
     0     0 -314.62089    0  878 -370.44538 -314.62089  15.1%     -  350s
     0     0 -317.45564    0  682 -370.44538 -317.45564  14.3%     -  521s
H    0     0                    -359.8474304 -317.45564  11.8%     -  543s
     0     0 -318.15094    0  699 -359.84743 -318.15094  11.6%     -  583s
     0     0 -318.15094    0  700 -359.84743 -318.15094  11.6%     -  588s
     0     0 -319.62756    0  702 -359.84743 -319.62756  11.2%     -  701s
H    0     0                    -358.0811058 -319.62756  10.7%     -  725s
     0     0 -320.98829    0  589 -358.08111 -320.98829  10.4%     -  825s
     0     0 -322.75461    0  545 -358.08111 -322.75461  9.87%     - 1120s
     0     0 -322.75461    0  545 -358.08111 -322.75461  9.87%     - 1146s
     0     0 -323.63778    0  475 -358.08111 -323.63778  9.62%     - 3911s
     0     0 -324.20604    0  557 -358.08111 -324.20604  9.46%     - 3999s
     0     0 -324.46675    0  557 -358.08111 -324.46675  9.39%     - 4038s
     0     0 -324.52094    0  478 -358.08111 -324.52094  9.37%     - 4070s
     0     0 -324.81533    0  563 -358.08111 -324.81533  9.29%     - 4129s
     0     0 -324.96252    0  556 -358.08111 -324.96252  9.25%     - 4145s
     0     0 -324.96252    0  557 -358.08111 -324.96252  9.25%     - 4149s
     0     0 -325.40410    0  475 -358.08111 -325.40410  9.13%     - 4194s
     0     0 -325.40410    0  478 -358.08111 -325.40410  9.13%     - 4210s
     0     0 -325.55129    0  565 -358.08111 -325.55129  9.08%     - 4243s
     0     0 -325.55129    0  568 -358.08111 -325.55129  9.08%     - 4271s
     0     0 -326.55221    0  564 -358.08111 -326.55221  8.80%     - 4319s
     0     0 -326.56827    0  568 -358.08111 -326.56827  8.80%     - 4356s
     0     0 -326.58165    0  571 -358.08111 -326.58165  8.80%     - 4379s
     0     0 -326.58165    0  572 -358.08111 -326.58165  8.80%     - 4383s
     0     0 -327.67509    0  578 -358.08111 -327.67509  8.49%     - 4418s
     0     0 -327.67509    0  579 -358.08111 -327.67509  8.49%     - 4443s
     0     0 -328.05359    0  568 -358.08111 -328.05359  8.39%     - 4516s
     0     0 -329.01704    0  567 -358.08111 -329.01704  8.12%     - 4749s
     0     0 -329.11338    0  564 -358.08111 -329.11338  8.09%     - 4805s
     0     0 -329.11338    0  564 -358.08111 -329.11338  8.09%     - 4810s
     0     0 -329.37833    0  559 -358.08111 -329.37833  8.02%     - 4843s
     0     0 -329.37833    0  558 -358.08111 -329.37833  8.02%     - 4872s
     0     0 -329.48873    0  575 -358.08111 -329.48873  7.98%     - 4941s
     0     0 -329.52553    0  570 -358.08111 -329.52553  7.97%     - 4976s
     0     0 -329.52553    0  568 -358.08111 -329.52553  7.97%     - 4980s
     0     0 -330.26149    0  563 -358.08111 -330.26149  7.77%     - 5125s
     0     0 -330.26149    0  562 -358.08111 -330.26149  7.77%     - 5152s
     0     0 -330.70307    0  497 -358.08111 -330.70307  7.65%     - 5225s
     0     0 -330.70307    0  484 -358.08111 -330.70307  7.65%     - 5244s
     0     0 -330.99746    0  565 -358.08111 -330.99746  7.56%     - 5303s
     0     0 -330.99746    0  562 -358.08111 -330.99746  7.56%     - 5331s
     0     0 -330.99746    0  561 -358.08111 -330.99746  7.56%     - 5349s
     0     0 -330.99746    0  562 -358.08111 -330.99746  7.56%     - 5365s
     0     0 -330.99746    0  556 -358.08111 -330.99746  7.56%     - 6562s
     0     0 -330.99746    0  556 -358.08111 -330.99746  7.56%     - 6711s
     0     2 -330.99746    0  556 -358.08111 -330.99746  7.56%     - 7029s
     1     3 -335.11889    1  527 -358.08111 -331.00439  7.56% 10881 7082s
     2     4 -343.06735    2  518 -358.08111 -331.00439  7.56% 10652 7152s
     3     5 -346.15841    3  484 -358.08111 -331.00439  7.56%  8369 7175s
     4     6 -346.60000    3  493 -358.08111 -331.00439  7.56%  7402 7195s
     5     7 -348.80790    4  471 -358.08111 -331.00439  7.56%  6308 7210s
     6     8 -351.45739    5  534 -358.08111 -331.00439  7.56%  5438 7220s
     7     7     cutoff    5      -358.08111 -331.00439  7.56%  5925 7279s
     8     8 -353.66529    6  478 -358.08111 -331.00439  7.56%  5376 7298s
     9     7     cutoff    7      -358.08111 -331.00439  7.56%  5000 7315s
    11     5     cutoff    6      -358.08111 -331.00439  7.56%  4593 7342s
    12     6 -336.17868    1  559 -358.08111 -335.11889  6.41%  4674 7379s
    13     7 -340.41786    2  480 -358.08111 -335.11889  6.41%  4413 7388s
    14     8 -343.06735    3  468 -358.08111 -335.11889  6.41%  4198 7398s
    15     9 -344.83367    4  454 -358.08111 -335.11889  6.41%  4019 7405s
    16    10 -346.60000    5  433 -358.08111 -335.11889  6.41%  3829 7442s
    17    11 -349.24948    5  429 -358.08111 -335.11889  6.41%  3731 7454s
    18    12 -354.54846    6  305 -358.08111 -335.11889  6.41%  3599 7469s
    19    13 -353.22371    6  462 -358.08111 -335.11889  6.41%  3505 7479s
    20    12     cutoff    7      -358.08111 -335.11889  6.41%  3347 7481s
    24    12 -354.99004    7  419 -358.08111 -335.11889  6.41%  2829 7498s
    25    13 -355.87320    8  416 -358.08111 -335.11889  6.41%  2724 7500s
    33    11     cutoff   10      -358.08111 -335.11889  6.41%  2077 7505s
    34    12 -338.65154    2  521 -358.08111 -336.18057  6.12%  2154 7532s
    35    13 -341.74260    3  464 -358.08111 -336.18057  6.12%  2201 7556s
    36    14 -351.45739    4  346 -358.08111 -336.18057  6.12%  2196 7596s
    37    15 -354.42730    5 1211 -358.08111 -336.18057  6.12%  2180 7607s
    38    16 -353.22371    5  285 -358.08111 -336.18057  6.12%  2137 7611s
    39    17 -357.19794    6  274 -358.08111 -336.18057  6.12%  2090 7615s
    42    16 -357.19794    6  220 -358.08111 -336.18057  6.12%  1955 7621s
    45    15 -355.87320    6  341 -358.08111 -336.18057  6.12%  1833 7630s
    51    13 -339.09312    2  551 -358.08111 -338.65154  5.43%  1717 7661s
    52    14 -340.85944    3  658 -358.08111 -338.65154  5.43%  1701 7668s
    53    15 -353.66529    3  474 -358.08111 -338.65154  5.43%  1830 7726s
    54    16 -356.31478    4  432 -358.08111 -338.65154  5.43%  1811 7737s
    56    14     cutoff    5      -358.08111 -338.65154  5.43%  1754 7740s
    57    15 -356.31478    4  430 -358.08111 -338.65154  5.43%  1731 7745s
    59    14     cutoff    5      -358.08111 -338.65154  5.43%  1679 7750s
    60    15 -343.65612    4  626 -358.08111 -338.65154  5.43%  1698 7764s
    61    16 -347.48316    4  616 -358.08111 -338.65154  5.43%  1773 7806s
    62    17 -350.13265    5  545 -358.08111 -338.65154  5.43%  1751 7810s
    63    18 -351.45739    5  498 -358.08111 -338.65154  5.43%  1752 7832s
    64    19 -351.89897    6  474 -358.08111 -338.65154  5.43%  1736 7849s
    65    20 -351.89897    7  472 -358.08111 -338.65154  5.43%  1709 7850s
    67    20     cutoff    8      -358.08111 -338.65154  5.43%  1670 7857s
    68    19     cutoff    7      -358.08111 -338.65154  5.43%  1801 7913s
    69    20 -355.43162    6  438 -358.08111 -338.65154  5.43%  1798 7922s
    70    21 -356.31478    7  441 -358.08111 -338.65154  5.43%  1776 7925s
    74    19 -356.31478    9  449 -358.08111 -338.65154  5.43%  1692 7931s
    79    18 -354.54846    9  464 -358.08111 -338.65154  5.43%  1595 7937s
    80    19 -355.43162   10  463 -358.08111 -338.65154  5.43%  1576 7947s
    82    19 -357.19794   11  442 -358.08111 -338.65154  5.43%  1543 7950s
    86    17 -350.13265    3  424 -358.08111 -340.41786  4.93%  1537 7989s
    87    18 -353.22371    4  398 -358.08111 -340.41786  4.93%  1527 7995s
    88    19 -356.31478    5  351 -358.08111 -340.41786  4.93%  1512 8006s
    93    18 -355.87320    5  304 -358.08111 -340.41786  4.93%  1435 8011s
    96    17 -346.60000    3  446 -358.08111 -341.74649  4.56%  1418 8064s
    97    18 -350.13265    4  432 -358.08111 -341.74649  4.56%  1418 8073s
    98    19 -354.99004    4  380 -358.08111 -341.74649  4.56%  1444 8088s
    99    20 -356.75636    5  359 -358.08111 -341.74649  4.56%  1432 8090s
   102    17     cutoff    6      -358.08111 -341.74649  4.56%  1399 8095s
   104    19 -351.89897    5  467 -358.08111 -341.74649  4.56%  1381 8103s
   105    20 -354.54846    6  645 -358.08111 -341.74649  4.56%  1388 8110s
   106    19     cutoff    6      -358.08111 -341.74649  4.56%  1380 8115s
   108    21 -357.19794    7  407 -358.08111 -341.74649  4.56%  1359 8120s
   112    19 -357.19794    6  420 -358.08111 -341.74649  4.56%  1318 8127s
   116    18 -345.71683    4  398 -358.08111 -343.08769  4.19%  1299 8146s
   117    19 -346.89438    5  496 -358.08111 -343.08769  4.19%  1300 8156s
   118    20 -348.80790    6  474 -358.08111 -343.08769  4.19%  1299 8166s
   119    21 -349.57675    7 1156 -358.08111 -343.08769  4.19%  1297 8176s
   125    27 -354.54846   13  246 -358.08111 -343.08769  4.19%  1236 8180s
   132    28     cutoff   18      -358.08111 -343.08769  4.19%  1174 8185s
   137    25 -344.83367    4  447 -358.08111 -343.65612  4.03%  1152 8198s
   138    26 -349.24948    5  376 -358.08111 -343.65612  4.03%  1179 8221s
   139    27 -351.01581    6  406 -358.08111 -343.65612  4.03%  1174 8225s
   141    29 -355.43162    8  389 -358.08111 -343.65612  4.03%  1161 8232s
   142    30 -357.19794    9  372 -358.08111 -343.65612  4.03%  1155 8235s
   147    27 -347.48316    5  586 -358.08111 -343.65993  4.03%  1124 8245s
   148    28 -350.13265    6  593 -358.08111 -343.65993  4.03%  1121 8251s
   149    29 -355.43162    7  491 -358.08111 -343.65993  4.03%  1122 8258s
   150    28     cutoff    8      -358.08111 -343.65993  4.03%  1116 8260s
   152    28 -352.78213    7  640 -358.08111 -343.65993  4.03%  1109 8266s
   153    29 -357.19794    8  571 -358.08111 -343.65993  4.03%  1107 8273s
   156    28 -354.54846    8  590 -358.08111 -343.65993  4.03%  1092 8278s
   159    27 -345.42245    5  620 -358.08111 -344.83367  3.70%  1079 8285s
   160    28 -348.80790    6  547 -358.08111 -344.83367  3.70%  1087 8296s
   161    29 -353.00292    7  555 -358.08111 -344.83367  3.70%  1089 8304s
   162    30 -353.22371    8  552 -358.08111 -344.83367  3.70%  1083 8305s
   165    29     cutoff   10      -358.08111 -344.83367  3.70%  1067 8310s
   167    27     cutoff    8      -358.08111 -344.83367  3.70%  1059 8316s
   168    28 -351.89897    5  361 -358.08111 -345.45279  3.53%  1096 8360s
   169    29 -355.43162    6  346 -358.08111 -345.45279  3.53%  1100 8369s
   170    30 -356.31478    6  409 -358.08111 -345.45279  3.53%  1109 8380s
   172    30 -357.19794    7  299 -358.08111 -345.45279  3.53%  1103 8385s
   176    26     cutoff    7      -358.08111 -345.45279  3.53%  1084 8390s
   177    27 -353.66529    6  491 -358.08111 -345.71683  3.45%  1124 8422s
   178    26     cutoff    7      -358.08111 -345.71683  3.45%  1127 8430s
   179    25     cutoff    7      -358.08111 -345.71683  3.45%  1137 8440s
   180    26 -354.54846    5  454 -358.08111 -346.15841  3.33%  1138 8448s
   181    25     cutoff    6      -358.08111 -346.15841  3.33%  1133 8450s
   183    25 -349.24948    4  462 -358.08111 -346.16647  3.33%  1149 8471s
   184    26 -352.78213    5  453 -358.08111 -346.16647  3.33%  1158 8484s
   185    27 -353.77657    6 1218 -358.08111 -346.16647  3.33%  1157 8489s
   186    28 -354.54846    7  452 -358.08111 -346.16647  3.33%  1152 8491s
   192    26     cutoff    8      -358.08111 -346.16647  3.33%  1119 8495s
   193    27 -353.22371    4  393 -358.08111 -346.60556  3.20%  1135 8517s
   194    28 -355.43162    5  351 -358.08111 -346.60556  3.20%  1133 8523s
   195    27     cutoff    6      -358.08111 -346.60556  3.20%  1134 8528s
   196    26     cutoff    6      -358.08111 -346.60556  3.20%  1130 8530s
   197    25     cutoff    5      -358.08111 -346.60556  3.20%  1126 8535s
   198    26 -352.34055    4  382 -358.08111 -346.63545  3.20%  1146 8566s
   199    27 -354.10688    5  360 -358.08111 -346.63545  3.20%  1145 8573s
   200    28 -356.75636    6  326 -358.08111 -346.63545  3.20%  1142 8578s
   203    25     cutoff    6      -358.08111 -346.63545  3.20%  1130 8583s
   204    24     cutoff    5      -358.08111 -346.63545  3.20%  1129 8588s
   205    25 -353.66529    6  324 -358.08111 -346.65083  3.19%  1142 8604s
   206    26 -357.19794    7  317 -358.08111 -346.65083  3.19%  1143 8609s
   207    25     cutoff    8      -358.08111 -346.65083  3.19%  1138 8610s
   209    23     cutoff    7      -358.08111 -346.65083  3.19%  1136 8616s
   210    24 -350.13265    6  369 -358.08111 -346.89572  3.12%  1159 8647s
   211    25 -355.43162    7  328 -358.08111 -346.89572  3.12%  1176 8664s
   212    26 -357.19794    8  273 -358.08111 -346.89572  3.12%  1174 8668s
   215    23     cutoff    8      -358.08111 -346.89572  3.12%  1160 8671s
   216    24 -353.66529    7  360 -358.08111 -346.89572  3.12%  1160 8676s
   219    23     cutoff    9      -358.08111 -346.89572  3.12%  1149 8681s
   221    23 -355.43162    6  346 -358.08111 -347.53373  2.95%  1157 8703s
   222    22     cutoff    7      -358.08111 -347.53373  2.95%  1156 8710s
   224    22 -351.89897    6  519 -358.08111 -348.81195  2.59%  1152 8721s
   225    23 -351.89897    7  513 -358.08111 -348.81195  2.59%  1147 8726s
   226    24 -356.31478    8  455 -358.08111 -348.81195  2.59%  1144 8730s
   229    22 -357.19794    8  340 -358.08111 -348.81195  2.59%  1139 8739s
   231    20     cutoff    7      -358.08111 -348.81195  2.59%  1131 8742s
   232    19     cutoff    7      -358.08111 -348.86945  2.57%  1129 8749s
   233    20 -356.90356    7  478 -358.08111 -349.24948  2.47%  1138 8761s
   236    19 -355.43162    6  342 -358.08111 -349.25699  2.46%  1137 8777s
   237    18 -357.63952    7  305 -358.08111 -349.25699  2.46%  1134 8781s
   239    16     cutoff    5      -358.08111 -350.14882  2.22%  1145 8802s
   240    17 -354.10688    4  438 -358.08111 -350.25956  2.18%  1144 8806s
   241    18 -357.19794    5  311 -358.08111 -350.25956  2.18%  1141 8810s
   246    17 -355.43162   10  305 -358.08111 -350.51827  2.11%  1122 8815s
   252    19 -356.31478   11  277 -358.08111 -350.51827  2.11%  1097 8820s
   259    16 -356.31478    7  339 -358.08111 -351.01581  1.97%  1070 8826s
   263    12     cutoff    6      -358.08111 -351.58900  1.81%  1058 8831s
   264    13 -351.89897    6  502 -358.08111 -351.89897  1.73%  1055 8835s
   266    15 -353.22371    8  555 -358.08111 -351.89897  1.73%  1050 8840s
   268    17 -354.99004   10  549 -358.08111 -351.89897  1.73%  1045 8845s
   271    16     cutoff   12      -358.08111 -351.89897  1.73%  1066 8941s
   273    14     cutoff   10      -358.08111 -351.89897  1.73%  1112 9097s
   274    15 -354.54846   11  377 -358.08111 -351.93370  1.72%  1113 9102s
   276    13     cutoff   12      -358.08111 -351.93370  1.72%  1116 9121s
   277    12     cutoff    7      -358.08111 -352.38054  1.59%  1162 9282s
   278    11     cutoff    8      -358.08111 -352.78213  1.48%  1254 9588s
   279    10     cutoff    6      -358.08111 -353.22371  1.36%  1252 9590s
   280     9     cutoff    9      -358.08111 -353.22577  1.36%  1266 9629s
   281     8     cutoff    7      -358.08111 -353.66529  1.23%  1304 9761s
   283     6     cutoff    7      -358.08111 -354.54846  0.99%  1301 9766s
   284     7 -357.19794    7  628 -358.08111 -354.54846  0.99%  1298 9775s
   291     4     cutoff    7      -358.08111 -354.99093  0.86%  1270 9780s
   292     3     cutoff    8      -358.08111 -355.43162  0.74%  1303 9872s

Cutting planes:
  Gomory: 4
  MIR: 2
  Zero half: 226

Explored 296 nodes (666838 simplex iterations) in 9873.72 seconds
Thread count was 1 (of 80 available processors)

Solution count 5: -358.081 -359.847 -370.445 ... -12301.9

Optimal solution found (tolerance 1.00e-04)
Best objective -3.580811058326e+02, best bound -3.580811058326e+02, gap 0.0000%
